
-5.2
-5.1
-4.8
-4.8
-4.8
-4.6
-4.5
-4.5
-4.5
-4.5
-4.3
-4.2
-4.2
-3.9
-3.9
-3.9
-3.9
-3.9
-3.9
-3.8
-4.85
-4.7
-4.6
-4.55
-4.4
-4.35
-4.25
-4.25
-4.15
-4.1
-4.05
-4.0
-4.0
-4.0
-4.0
-4.0
-3.9
-3.9
-3.9
-3.9
-3.9